problem_generation/data/GISP/train/er_n=63_m=1201_p=0.60_SET2_setparam=100.00_alpha=0.50_717.lp
maximize
OBJ:100x0 + 100x1 + 100x2 + 100x3 + 100x4 + 100x5 + 100x6 + 100x7 + 100x8 + 100x9 + 100x10 + 100x11 + 100x12 + 100x13 + 100x14 + 100x15 + 100x16 + 100x17 + 100x18 + 100x19 + 100x20 + 100x21 + 100x22 + 100x23 + 100x24 + 100x25 + 100x26 + 100x27 + 100x28 + 100x29 + 100x30 + 100x31 + 100x32 + 100x33 + 100x34 + 100x35 + 100x36 + 100x37 + 100x38 + 100x39 + 100x40 + 100x41 + 100x42 + 100x43 + 100x44 + 100x45 + 100x46 + 100x47 + 100x48 + 100x49 + 100x50 + 100x51 + 100x52 + 100x53 + 100x54 + 100x55 + 100x56 + 100x57 + 100x58 + 100x59 + 100x60 + 100x61 + 100x62 - y7_26 - y18_35 - y29_32 - y6_48 - y40_50 - y11_23 - y29_59 - y10_36 - y33_56 - y44_56 - y3_15 - y2_59 - y3_24 - y14_24 - y22_46 - y47_48 - y17_44 - y17_53 - y6_43 - y40_45 - y21_41 - y6_52 - y29_54 - y25_29 - y10_40 - y2_36 - y25_38 - y44_51 - y3_10 - y2_54 - y35_60 - y36_52 - y5_46 - y17_57 - y29_31 - y21_27 - y29_49 - y21_45 - y40_58 - y2_13 - y33_37 - y25_33 - y2_49 - y3_14 - y24_46 - y14_23 - y13_55 - y14_32 - y5_41 - y17_43 - y28_43 - y47_56 - y28_52 - y17_61 - y28_61 - y50_58 - y6_42 - y29_44 - y6_51 - y10_12 - y39_48 - y39_57 - y31_53 - y10_30 - y25_28 - y12_58 - y24_32 - y32_45 - y13_41 - y24_41 - y32_54 - y16_37 - y13_50 - y24_50 - y35_50 - y16_46 - y17_20 - y28_29 - y5_36 - y9_34 - y17_47 - y6_10 - y9_43 - y61_62 - y6_37 - y42_58 - y39_43 - y20_48 - y10_25 - y12_44 - y39_61 - y12_53 - y23_53 - y12_62 - y3_4 - y4_58 - y24_36 - y35_36 - y32_49 - y1_43 - y16_41 - y35_54 - y9_11 - y16_59 - y5_22 - y17_24 - y5_31 - y17_33 - y28_33 - y9_47 - y8_51 - y21_30 - y31_34 - y10_11 - y39_47 - y2_7 - y31_43 - y12_39 - y32_35 - y1_29 - y24_31 - y4_62 - y1_38 - y35_40 - y1_47 - y13_49 - y24_49 - y35_49 - y1_56 - y16_54 - y5_17 - y17_19 - y9_15 - y38_51 - y49_51 - y38_60 - y5_35 - y9_33 - y6_9 - y27_41 - y19_55 - y23_25 - y20_38 - y31_38 - y12_34 - y23_34 - y39_60 - y20_56 - y1_15 - y13_17 - y23_61 - y1_24 - y24_26 - y53_62 - y34_58 - y16_31 - y1_42 - y13_44 - y16_40 - y1_51 - y5_21 - y9_19 - y49_55 - y5_30 - y9_28 - y5_39 - y7_58 - y27_36 - y8_41 - y30_41 - y27_54 - y0_37 - y8_50 - y30_50 - y8_59 - y42_61 - y11_55 - y23_29 - y20_51 - y23_47 - y1_10 - y23_56 - y13_21 - y53_57 - y4_52 - y16_17 - y34_53 - y1_28 - y45_53 - y4_61 - y56_62 - y16_35 - y5_7 - y15_48 - y49_50 - y18_62 - y19_27 - y8_36 - y30_36 - y0_32 - y11_32 - y30_45 - y42_47 - y11_41 - y20_28 - y4_11 - y11_59 - y4_20 - y12_33 - y23_33 - y4_29 - y23_42 - y1_5 - y34_39 - y4_47 - y24_25 - y16_21 - y34_57 - y1_32 - y45_57 - y16_30 - y14_60 - y37_62 - y15_34 - y26_43 - y38_45 - y18_39 - y49_54 - y7_48 - y19_22 - y27_35 - y11_18 - y19_40 - y11_36 - y8_49 - y19_49 - y30_49 - y0_45 - y30_58 - y4_6 - y41_55 - y52_55 - y33_60 - y44_60 - y22_41 - y34_43 - y1_18 - y53_56 - y3_46 - y22_59 - y45_61 - y37_57 - y15_20 - y26_29 - y5_6 - y7_43 - y15_56 - y7_52 - y8_17 - y18_52 - y8_26 - y48_62 - y8_35 - y11_40 - y41_50 - y4_10 - y4_19 - y33_55 - y34_56 - y45_56 - y37_52 - y14_59 - y3_59 - y37_61 - y7_20 - y8_12 - y7_56 - y8_21 - y18_56 - y48_57 - y0_17 - y11_17 - y19_30 - y29_53 - y0_26 - y11_26 - y40_62 - y21_58 - y11_35 - y33_41 - y41_54 - y25_46 - y2_62 - y3_36 - y37_38 - y36_60 - y59_62 - y7_42 - y8_16 - y11_21 - y21_53 - y33_45 - y33_54 - y25_50 - y10_61 - y51_62 - y3_22 - y14_22 - y22_53 - y3_49 - y15_23 - y7_19 - y18_19 - y26_32 - y17_51 - y47_55 - y7_28 - y18_28 - y28_60 - y18_37 - y0_7 - y29_43 - y11_16 - y21_57 - y10_29 - y33_49 - y25_45 - y3_8 - y2_52 - y22_30 - y2_61 - y3_26 - y43_62 - y24_58 - y17_46 - y7_23 - y28_55 - y5_62 - y29_38 - y21_34 - y29_47 - y21_43 - y29_56 - y21_52 - y10_15 - y21_61 - y2_38 - y3_12 - y32_48 - y22_25 - y43_48 - y32_57 - y13_53 - y24_53 - y28_32 - y47_54 - y17_59 - y28_59 - y29_42 - y40_42 - y21_38 - y6_49 - y10_19 - y2_24 - y25_26 - y32_52 - y13_48 - y3_25 - y32_61 - y13_57 - y35_57 - y17_18 - y17_27 - y36_40 - y28_36 - y47_49 - y9_32 - y47_58 - y5_52 - y17_54 - y28_54 - y9_50 - y5_61 - y39_50 - y2_10 - y31_46 - y2_19 - y54_57 - y12_60 - y51_60 - y32_56 - y16_39 - y24_52 - y35_52 - y16_48 - y1_59 - y13_61 - y35_61 - y9_18 - y9_36 - y17_49 - y9_45 - y5_56 - y6_30 - y6_39 - y19_58 - y42_60 - y31_41 - y2_14 - y20_50 - y2_23 - y23_55 - y4_51 - y32_33 - y1_27 - y4_60 - y32_42 - y35_38 - y43_51 - y1_45 - y13_47 - y35_47 - y16_43 - y13_56 - y24_56 - y16_52 - y16_61 - y17_26 - y36_39 - y9_22 - y9_31 - y9_40 - y5_51 - y6_16 - y27_48 - y19_53 - y30_53 - y39_49 - y12_41 - y31_54 - y12_50 - y13_15 - y13_24 - y1_22 - y53_60 - y16_29 - y13_42 - y16_38 - y24_51 - y46_48 - y5_19 - y17_21 - y5_28 - y17_30 - y28_30 - y15_60 - y19_48 - y42_50 - y0_44 - y11_44 - y30_57 - y20_22 - y11_53 - y12_18 - y20_31 - y11_62 - y39_44 - y20_40 - y4_23 - y12_36 - y12_45 - y20_58 - y53_55 - y13_37 - y16_33 - y5_23 - y9_21 - y15_55 - y38_57 - y27_38 - y0_39 - y8_52 - y0_48 - y12_13 - y11_57 - y12_22 - y12_31 - y23_31 - y12_40 - y23_40 - y4_36 - y23_49 - y34_46 - y1_21 - y1_30 - y1_39 - y3_58 - y37_60 - y15_41 - y5_18 - y49_52 - y7_46 - y15_59 - y26_59 - y38_61 - y7_55 - y19_38 - y30_38 - y19_47 - y30_47 - y8_56 - y19_56 - y11_61 - y41_62 - y52_62 - y33_58 - y34_41 - y1_16 - y53_54 - y22_48 - y56_59 - y3_53 - y3_62 - y15_27 - y26_27 - y18_32 - y15_45 - y38_47 - y18_41 - y38_56 - y27_28 - y18_59 - y8_24 - y11_20 - y19_33 - y11_29 - y8_42 - y60_61 - y4_8 - y33_62 - y4_35 - y22_34 - y1_11 - y22_43 - y53_58 - y37_41 - y3_48 - y14_48 - y22_61 - y15_31 - y15_40 - y18_36 - y15_49 - y18_54 - y11_24 - y40_60 - y21_56 - y11_33 - y11_42 - y41_43 - y12_16 - y10_46 - y44_48 - y52_61 - y4_21 - y25_53 - y1_6 - y3_34 - y14_34 - y45_49 - y3_43 - y37_45 - y14_52 - y3_61 - y18_40 - y8_14 - y0_10 - y29_46 - y40_46 - y48_59 - y0_19 - y11_19 - y29_55 - y6_62 - y21_60 - y33_34 - y41_47 - y10_50 - y33_52 - y33_61 - y2_55 - y14_20 - y25_57 - y3_38 - y22_51 - y7_8
 Subject to
C1: x0+x1 <=1 
C2: x0+x2 <=1 
C3: x0+x4 <=1 
C4: x0+x5 <=1 
C5: x0+x6 <=1 
C6: x0+x7-y0_7 <=1 
C7: x0+x9 <=1 
C8: x0+x10-y0_10 <=1 
C9: x0+x12 <=1 
C10: x0+x14 <=1 
C11: x0+x16 <=1 
C12: x0+x17-y0_17 <=1 
C13: x0+x19-y0_19 <=1 
C14: x0+x23 <=1 
C15: x0+x24 <=1 
C16: x0+x25 <=1 
C17: x0+x26-y0_26 <=1 
C18: x0+x30 <=1 
C19: x0+x32-y0_32 <=1 
C20: x0+x33 <=1 
C21: x0+x34 <=1 
C22: x0+x37-y0_37 <=1 
C23: x0+x38 <=1 
C24: x0+x39-y0_39 <=1 
C25: x0+x43 <=1 
C26: x0+x44-y0_44 <=1 
C27: x0+x45-y0_45 <=1 
C28: x0+x46 <=1 
C29: x0+x48-y0_48 <=1 
C30: x0+x49 <=1 
C31: x0+x50 <=1 
C32: x0+x51 <=1 
C33: x0+x52 <=1 
C34: x0+x58 <=1 
C35: x0+x59 <=1 
C36: x0+x60 <=1 
C37: x1+x5-y1_5 <=1 
C38: x1+x6-y1_6 <=1 
C39: x1+x9 <=1 
C40: x1+x10-y1_10 <=1 
C41: x1+x11-y1_11 <=1 
C42: x1+x12 <=1 
C43: x1+x14 <=1 
C44: x1+x15-y1_15 <=1 
C45: x1+x16-y1_16 <=1 
C46: x1+x17 <=1 
C47: x1+x18-y1_18 <=1 
C48: x1+x19 <=1 
C49: x1+x21-y1_21 <=1 
C50: x1+x22-y1_22 <=1 
C51: x1+x23 <=1 
C52: x1+x24-y1_24 <=1 
C53: x1+x25 <=1 
C54: x1+x27-y1_27 <=1 
C55: x1+x28-y1_28 <=1 
C56: x1+x29-y1_29 <=1 
C57: x1+x30-y1_30 <=1 
C58: x1+x32-y1_32 <=1 
C59: x1+x38-y1_38 <=1 
C60: x1+x39-y1_39 <=1 
C61: x1+x41 <=1 
C62: x1+x42-y1_42 <=1 
C63: x1+x43-y1_43 <=1 
C64: x1+x44 <=1 
C65: x1+x45-y1_45 <=1 
C66: x1+x46 <=1 
C67: x1+x47-y1_47 <=1 
C68: x1+x49 <=1 
C69: x1+x50 <=1 
C70: x1+x51-y1_51 <=1 
C71: x1+x52 <=1 
C72: x1+x56-y1_56 <=1 
C73: x1+x59-y1_59 <=1 
C74: x1+x61 <=1 
C75: x2+x7-y2_7 <=1 
C76: x2+x9 <=1 
C77: x2+x10-y2_10 <=1 
C78: x2+x11 <=1 
C79: x2+x12 <=1 
C80: x2+x13-y2_13 <=1 
C81: x2+x14-y2_14 <=1 
C82: x2+x16 <=1 
C83: x2+x19-y2_19 <=1 
C84: x2+x21 <=1 
C85: x2+x22 <=1 
C86: x2+x23-y2_23 <=1 
C87: x2+x24-y2_24 <=1 
C88: x2+x25 <=1 
C89: x2+x33 <=1 
C90: x2+x34 <=1 
C91: x2+x36-y2_36 <=1 
C92: x2+x37 <=1 
C93: x2+x38-y2_38 <=1 
C94: x2+x39 <=1 
C95: x2+x40 <=1 
C96: x2+x44 <=1 
C97: x2+x45 <=1 
C98: x2+x46 <=1 
C99: x2+x47 <=1 
C100: x2+x48 <=1 
C101: x2+x49-y2_49 <=1 
C102: x2+x50 <=1 
C103: x2+x52-y2_52 <=1 
C104: x2+x53 <=1 
C105: x2+x54-y2_54 <=1 
C106: x2+x55-y2_55 <=1 
C107: x2+x56 <=1 
C108: x2+x57 <=1 
C109: x2+x58 <=1 
C110: x2+x59-y2_59 <=1 
C111: x2+x61-y2_61 <=1 
C112: x2+x62-y2_62 <=1 
C113: x3+x4-y3_4 <=1 
C114: x3+x6 <=1 
C115: x3+x8-y3_8 <=1 
C116: x3+x10-y3_10 <=1 
C117: x3+x12-y3_12 <=1 
C118: x3+x13 <=1 
C119: x3+x14-y3_14 <=1 
C120: x3+x15-y3_15 <=1 
C121: x3+x16 <=1 
C122: x3+x19 <=1 
C123: x3+x20 <=1 
C124: x3+x22-y3_22 <=1 
C125: x3+x23 <=1 
C126: x3+x24-y3_24 <=1 
C127: x3+x25-y3_25 <=1 
C128: x3+x26-y3_26 <=1 
C129: x3+x28 <=1 
C130: x3+x30 <=1 
C131: x3+x32 <=1 
C132: x3+x34-y3_34 <=1 
C133: x3+x35 <=1 
C134: x3+x36-y3_36 <=1 
C135: x3+x37 <=1 
C136: x3+x38-y3_38 <=1 
C137: x3+x39 <=1 
C138: x3+x40 <=1 
C139: x3+x42 <=1 
C140: x3+x43-y3_43 <=1 
C141: x3+x44 <=1 
C142: x3+x45 <=1 
C143: x3+x46-y3_46 <=1 
C144: x3+x47 <=1 
C145: x3+x48-y3_48 <=1 
C146: x3+x49-y3_49 <=1 
C147: x3+x53-y3_53 <=1 
C148: x3+x54 <=1 
C149: x3+x55 <=1 
C150: x3+x56 <=1 
C151: x3+x57 <=1 
C152: x3+x58-y3_58 <=1 
C153: x3+x59-y3_59 <=1 
C154: x3+x60 <=1 
C155: x3+x61-y3_61 <=1 
C156: x3+x62-y3_62 <=1 
C157: x4+x6-y4_6 <=1 
C158: x4+x8-y4_8 <=1 
C159: x4+x10-y4_10 <=1 
C160: x4+x11-y4_11 <=1 
C161: x4+x12 <=1 
C162: x4+x13 <=1 
C163: x4+x15 <=1 
C164: x4+x16 <=1 
C165: x4+x19-y4_19 <=1 
C166: x4+x20-y4_20 <=1 
C167: x4+x21-y4_21 <=1 
C168: x4+x23-y4_23 <=1 
C169: x4+x24 <=1 
C170: x4+x27 <=1 
C171: x4+x29-y4_29 <=1 
C172: x4+x30 <=1 
C173: x4+x35-y4_35 <=1 
C174: x4+x36-y4_36 <=1 
C175: x4+x38 <=1 
C176: x4+x40 <=1 
C177: x4+x44 <=1 
C178: x4+x47-y4_47 <=1 
C179: x4+x51-y4_51 <=1 
C180: x4+x52-y4_52 <=1 
C181: x4+x58-y4_58 <=1 
C182: x4+x60-y4_60 <=1 
C183: x4+x61-y4_61 <=1 
C184: x4+x62-y4_62 <=1 
C185: x5+x6-y5_6 <=1 
C186: x5+x7-y5_7 <=1 
C187: x5+x8 <=1 
C188: x5+x9 <=1 
C189: x5+x10 <=1 
C190: x5+x11 <=1 
C191: x5+x14 <=1 
C192: x5+x16 <=1 
C193: x5+x17-y5_17 <=1 
C194: x5+x18-y5_18 <=1 
C195: x5+x19-y5_19 <=1 
C196: x5+x21-y5_21 <=1 
C197: x5+x22-y5_22 <=1 
C198: x5+x23-y5_23 <=1 
C199: x5+x26 <=1 
C200: x5+x28-y5_28 <=1 
C201: x5+x29 <=1 
C202: x5+x30-y5_30 <=1 
C203: x5+x31-y5_31 <=1 
C204: x5+x32 <=1 
C205: x5+x34 <=1 
C206: x5+x35-y5_35 <=1 
C207: x5+x36-y5_36 <=1 
C208: x5+x37 <=1 
C209: x5+x39-y5_39 <=1 
C210: x5+x40 <=1 
C211: x5+x41-y5_41 <=1 
C212: x5+x43 <=1 
C213: x5+x45 <=1 
C214: x5+x46-y5_46 <=1 
C215: x5+x47 <=1 
C216: x5+x50 <=1 
C217: x5+x51-y5_51 <=1 
C218: x5+x52-y5_52 <=1 
C219: x5+x55 <=1 
C220: x5+x56-y5_56 <=1 
C221: x5+x57 <=1 
C222: x5+x58 <=1 
C223: x5+x61-y5_61 <=1 
C224: x5+x62-y5_62 <=1 
C225: x6+x8 <=1 
C226: x6+x9-y6_9 <=1 
C227: x6+x10-y6_10 <=1 
C228: x6+x12 <=1 
C229: x6+x15 <=1 
C230: x6+x16-y6_16 <=1 
C231: x6+x17 <=1 
C232: x6+x19 <=1 
C233: x6+x21 <=1 
C234: x6+x24 <=1 
C235: x6+x25 <=1 
C236: x6+x29 <=1 
C237: x6+x30-y6_30 <=1 
C238: x6+x31 <=1 
C239: x6+x37-y6_37 <=1 
C240: x6+x39-y6_39 <=1 
C241: x6+x41 <=1 
C242: x6+x42-y6_42 <=1 
C243: x6+x43-y6_43 <=1 
C244: x6+x44 <=1 
C245: x6+x45 <=1 
C246: x6+x46 <=1 
C247: x6+x48-y6_48 <=1 
C248: x6+x49-y6_49 <=1 
C249: x6+x51-y6_51 <=1 
C250: x6+x52-y6_52 <=1 
C251: x6+x53 <=1 
C252: x6+x55 <=1 
C253: x6+x57 <=1 
C254: x6+x59 <=1 
C255: x6+x62-y6_62 <=1 
C256: x7+x8-y7_8 <=1 
C257: x7+x10 <=1 
C258: x7+x12 <=1 
C259: x7+x17 <=1 
C260: x7+x19-y7_19 <=1 
C261: x7+x20-y7_20 <=1 
C262: x7+x21 <=1 
C263: x7+x23-y7_23 <=1 
C264: x7+x25 <=1 
C265: x7+x26-y7_26 <=1 
C266: x7+x28-y7_28 <=1 
C267: x7+x29 <=1 
C268: x7+x31 <=1 
C269: x7+x32 <=1 
C270: x7+x37 <=1 
C271: x7+x39 <=1 
C272: x7+x40 <=1 
C273: x7+x42-y7_42 <=1 
C274: x7+x43-y7_43 <=1 
C275: x7+x45 <=1 
C276: x7+x46-y7_46 <=1 
C277: x7+x47 <=1 
C278: x7+x48-y7_48 <=1 
C279: x7+x50 <=1 
C280: x7+x52-y7_52 <=1 
C281: x7+x53 <=1 
C282: x7+x55-y7_55 <=1 
C283: x7+x56-y7_56 <=1 
C284: x7+x57 <=1 
C285: x7+x58-y7_58 <=1 
C286: x7+x61 <=1 
C287: x7+x62 <=1 
C288: x8+x9 <=1 
C289: x8+x12-y8_12 <=1 
C290: x8+x14-y8_14 <=1 
C291: x8+x15 <=1 
C292: x8+x16-y8_16 <=1 
C293: x8+x17-y8_17 <=1 
C294: x8+x21-y8_21 <=1 
C295: x8+x24-y8_24 <=1 
C296: x8+x26-y8_26 <=1 
C297: x8+x27 <=1 
C298: x8+x30 <=1 
C299: x8+x31 <=1 
C300: x8+x32 <=1 
C301: x8+x34 <=1 
C302: x8+x35-y8_35 <=1 
C303: x8+x36-y8_36 <=1 
C304: x8+x39 <=1 
C305: x8+x41-y8_41 <=1 
C306: x8+x42-y8_42 <=1 
C307: x8+x46 <=1 
C308: x8+x49-y8_49 <=1 
C309: x8+x50-y8_50 <=1 
C310: x8+x51-y8_51 <=1 
C311: x8+x52-y8_52 <=1 
C312: x8+x54 <=1 
C313: x8+x56-y8_56 <=1 
C314: x8+x58 <=1 
C315: x8+x59-y8_59 <=1 
C316: x8+x60 <=1 
C317: x8+x61 <=1 
C318: x9+x10 <=1 
C319: x9+x11-y9_11 <=1 
C320: x9+x13 <=1 
C321: x9+x14 <=1 
C322: x9+x15-y9_15 <=1 
C323: x9+x16 <=1 
C324: x9+x18-y9_18 <=1 
C325: x9+x19-y9_19 <=1 
C326: x9+x21-y9_21 <=1 
C327: x9+x22-y9_22 <=1 
C328: x9+x23 <=1 
C329: x9+x24 <=1 
C330: x9+x25 <=1 
C331: x9+x28-y9_28 <=1 
C332: x9+x29 <=1 
C333: x9+x31-y9_31 <=1 
C334: x9+x32-y9_32 <=1 
C335: x9+x33-y9_33 <=1 
C336: x9+x34-y9_34 <=1 
C337: x9+x36-y9_36 <=1 
C338: x9+x37 <=1 
C339: x9+x39 <=1 
C340: x9+x40-y9_40 <=1 
C341: x9+x42 <=1 
C342: x9+x43-y9_43 <=1 
C343: x9+x45-y9_45 <=1 
C344: x9+x47-y9_47 <=1 
C345: x9+x48 <=1 
C346: x9+x49 <=1 
C347: x9+x50-y9_50 <=1 
C348: x9+x53 <=1 
C349: x9+x54 <=1 
C350: x9+x55 <=1 
C351: x9+x56 <=1 
C352: x9+x60 <=1 
C353: x9+x62 <=1 
C354: x10+x11-y10_11 <=1 
C355: x10+x12-y10_12 <=1 
C356: x10+x13 <=1 
C357: x10+x15-y10_15 <=1 
C358: x10+x17 <=1 
C359: x10+x19-y10_19 <=1 
C360: x10+x23 <=1 
C361: x10+x25-y10_25 <=1 
C362: x10+x29-y10_29 <=1 
C363: x10+x30-y10_30 <=1 
C364: x10+x31 <=1 
C365: x10+x35 <=1 
C366: x10+x36-y10_36 <=1 
C367: x10+x37 <=1 
C368: x10+x38 <=1 
C369: x10+x39 <=1 
C370: x10+x40-y10_40 <=1 
C371: x10+x42 <=1 
C372: x10+x43 <=1 
C373: x10+x46-y10_46 <=1 
C374: x10+x47 <=1 
C375: x10+x50-y10_50 <=1 
C376: x10+x52 <=1 
C377: x10+x53 <=1 
C378: x10+x55 <=1 
C379: x10+x61-y10_61 <=1 
C380: x10+x62 <=1 
C381: x11+x13 <=1 
C382: x11+x15 <=1 
C383: x11+x16-y11_16 <=1 
C384: x11+x17-y11_17 <=1 
C385: x11+x18-y11_18 <=1 
C386: x11+x19-y11_19 <=1 
C387: x11+x20-y11_20 <=1 
C388: x11+x21-y11_21 <=1 
C389: x11+x22 <=1 
C390: x11+x23-y11_23 <=1 
C391: x11+x24-y11_24 <=1 
C392: x11+x26-y11_26 <=1 
C393: x11+x29-y11_29 <=1 
C394: x11+x31 <=1 
C395: x11+x32-y11_32 <=1 
C396: x11+x33-y11_33 <=1 
C397: x11+x35-y11_35 <=1 
C398: x11+x36-y11_36 <=1 
C399: x11+x40-y11_40 <=1 
C400: x11+x41-y11_41 <=1 
C401: x11+x42-y11_42 <=1 
C402: x11+x43 <=1 
C403: x11+x44-y11_44 <=1 
C404: x11+x47 <=1 
C405: x11+x51 <=1 
C406: x11+x53-y11_53 <=1 
C407: x11+x54 <=1 
C408: x11+x55-y11_55 <=1 
C409: x11+x56 <=1 
C410: x11+x57-y11_57 <=1 
C411: x11+x59-y11_59 <=1 
C412: x11+x60 <=1 
C413: x11+x61-y11_61 <=1 
C414: x11+x62-y11_62 <=1 
C415: x12+x13-y12_13 <=1 
C416: x12+x16-y12_16 <=1 
C417: x12+x17 <=1 
C418: x12+x18-y12_18 <=1 
C419: x12+x19 <=1 
C420: x12+x20 <=1 
C421: x12+x21 <=1 
C422: x12+x22-y12_22 <=1 
C423: x12+x23 <=1 
C424: x12+x25 <=1 
C425: x12+x27 <=1 
C426: x12+x29 <=1 
C427: x12+x31-y12_31 <=1 
C428: x12+x32 <=1 
C429: x12+x33-y12_33 <=1 
C430: x12+x34-y12_34 <=1 
C431: x12+x35 <=1 
C432: x12+x36-y12_36 <=1 
C433: x12+x39-y12_39 <=1 
C434: x12+x40-y12_40 <=1 
C435: x12+x41-y12_41 <=1 
C436: x12+x44-y12_44 <=1 
C437: x12+x45-y12_45 <=1 
C438: x12+x46 <=1 
C439: x12+x47 <=1 
C440: x12+x50-y12_50 <=1 
C441: x12+x51 <=1 
C442: x12+x52 <=1 
C443: x12+x53-y12_53 <=1 
C444: x12+x54 <=1 
C445: x12+x55 <=1 
C446: x12+x56 <=1 
C447: x12+x58-y12_58 <=1 
C448: x12+x60-y12_60 <=1 
C449: x12+x62-y12_62 <=1 
C450: x13+x15-y13_15 <=1 
C451: x13+x17-y13_17 <=1 
C452: x13+x20 <=1 
C453: x13+x21-y13_21 <=1 
C454: x13+x22 <=1 
C455: x13+x24-y13_24 <=1 
C456: x13+x25 <=1 
C457: x13+x27 <=1 
C458: x13+x28 <=1 
C459: x13+x30 <=1 
C460: x13+x31 <=1 
C461: x13+x33 <=1 
C462: x13+x34 <=1 
C463: x13+x36 <=1 
C464: x13+x37-y13_37 <=1 
C465: x13+x41-y13_41 <=1 
C466: x13+x42-y13_42 <=1 
C467: x13+x43 <=1 
C468: x13+x44-y13_44 <=1 
C469: x13+x45 <=1 
C470: x13+x47-y13_47 <=1 
C471: x13+x48-y13_48 <=1 
C472: x13+x49-y13_49 <=1 
C473: x13+x50-y13_50 <=1 
C474: x13+x53-y13_53 <=1 
C475: x13+x54 <=1 
C476: x13+x55-y13_55 <=1 
C477: x13+x56-y13_56 <=1 
C478: x13+x57-y13_57 <=1 
C479: x13+x60 <=1 
C480: x13+x61-y13_61 <=1 
C481: x13+x62 <=1 
C482: x14+x18 <=1 
C483: x14+x19 <=1 
C484: x14+x20-y14_20 <=1 
C485: x14+x22-y14_22 <=1 
C486: x14+x23-y14_23 <=1 
C487: x14+x24-y14_24 <=1 
C488: x14+x26 <=1 
C489: x14+x27 <=1 
C490: x14+x29 <=1 
C491: x14+x32-y14_32 <=1 
C492: x14+x34-y14_34 <=1 
C493: x14+x35 <=1 
C494: x14+x36 <=1 
C495: x14+x37 <=1 
C496: x14+x38 <=1 
C497: x14+x46 <=1 
C498: x14+x48-y14_48 <=1 
C499: x14+x49 <=1 
C500: x14+x50 <=1 
C501: x14+x51 <=1 
C502: x14+x52-y14_52 <=1 
C503: x14+x53 <=1 
C504: x14+x54 <=1 
C505: x14+x55 <=1 
C506: x14+x56 <=1 
C507: x14+x57 <=1 
C508: x14+x59-y14_59 <=1 
C509: x14+x60-y14_60 <=1 
C510: x14+x62 <=1 
C511: x15+x17 <=1 
C512: x15+x18 <=1 
C513: x15+x20-y15_20 <=1 
C514: x15+x23-y15_23 <=1 
C515: x15+x27-y15_27 <=1 
C516: x15+x28 <=1 
C517: x15+x30 <=1 
C518: x15+x31-y15_31 <=1 
C519: x15+x32 <=1 
C520: x15+x34-y15_34 <=1 
C521: x15+x36 <=1 
C522: x15+x37 <=1 
C523: x15+x38 <=1 
C524: x15+x40-y15_40 <=1 
C525: x15+x41-y15_41 <=1 
C526: x15+x44 <=1 
C527: x15+x45-y15_45 <=1 
C528: x15+x48-y15_48 <=1 
C529: x15+x49-y15_49 <=1 
C530: x15+x50 <=1 
C531: x15+x51 <=1 
C532: x15+x52 <=1 
C533: x15+x55-y15_55 <=1 
C534: x15+x56-y15_56 <=1 
C535: x15+x58 <=1 
C536: x15+x59-y15_59 <=1 
C537: x15+x60-y15_60 <=1 
C538: x16+x17-y16_17 <=1 
C539: x16+x21-y16_21 <=1 
C540: x16+x22 <=1 
C541: x16+x25 <=1 
C542: x16+x26 <=1 
C543: x16+x27 <=1 
C544: x16+x28 <=1 
C545: x16+x29-y16_29 <=1 
C546: x16+x30-y16_30 <=1 
C547: x16+x31-y16_31 <=1 
C548: x16+x33-y16_33 <=1 
C549: x16+x34 <=1 
C550: x16+x35-y16_35 <=1 
C551: x16+x36 <=1 
C552: x16+x37-y16_37 <=1 
C553: x16+x38-y16_38 <=1 
C554: x16+x39-y16_39 <=1 
C555: x16+x40-y16_40 <=1 
C556: x16+x41-y16_41 <=1 
C557: x16+x43-y16_43 <=1 
C558: x16+x45 <=1 
C559: x16+x46-y16_46 <=1 
C560: x16+x48-y16_48 <=1 
C561: x16+x50 <=1 
C562: x16+x51 <=1 
C563: x16+x52-y16_52 <=1 
C564: x16+x53 <=1 
C565: x16+x54-y16_54 <=1 
C566: x16+x56 <=1 
C567: x16+x58 <=1 
C568: x16+x59-y16_59 <=1 
C569: x16+x61-y16_61 <=1 
C570: x17+x18-y17_18 <=1 
C571: x17+x19-y17_19 <=1 
C572: x17+x20-y17_20 <=1 
C573: x17+x21-y17_21 <=1 
C574: x17+x22 <=1 
C575: x17+x23 <=1 
C576: x17+x24-y17_24 <=1 
C577: x17+x26-y17_26 <=1 
C578: x17+x27-y17_27 <=1 
C579: x17+x28 <=1 
C580: x17+x30-y17_30 <=1 
C581: x17+x31 <=1 
C582: x17+x33-y17_33 <=1 
C583: x17+x36 <=1 
C584: x17+x38 <=1 
C585: x17+x39 <=1 
C586: x17+x40 <=1 
C587: x17+x41 <=1 
C588: x17+x43-y17_43 <=1 
C589: x17+x44-y17_44 <=1 
C590: x17+x46-y17_46 <=1 
C591: x17+x47-y17_47 <=1 
C592: x17+x48 <=1 
C593: x17+x49-y17_49 <=1 
C594: x17+x50 <=1 
C595: x17+x51-y17_51 <=1 
C596: x17+x52 <=1 
C597: x17+x53-y17_53 <=1 
C598: x17+x54-y17_54 <=1 
C599: x17+x55 <=1 
C600: x17+x57-y17_57 <=1 
C601: x17+x59-y17_59 <=1 
C602: x17+x61-y17_61 <=1 
C603: x18+x19-y18_19 <=1 
C604: x18+x21 <=1 
C605: x18+x24 <=1 
C606: x18+x26 <=1 
C607: x18+x27 <=1 
C608: x18+x28-y18_28 <=1 
C609: x18+x29 <=1 
C610: x18+x31 <=1 
C611: x18+x32-y18_32 <=1 
C612: x18+x35-y18_35 <=1 
C613: x18+x36-y18_36 <=1 
C614: x18+x37-y18_37 <=1 
C615: x18+x39-y18_39 <=1 
C616: x18+x40-y18_40 <=1 
C617: x18+x41-y18_41 <=1 
C618: x18+x46 <=1 
C619: x18+x50 <=1 
C620: x18+x51 <=1 
C621: x18+x52-y18_52 <=1 
C622: x18+x53 <=1 
C623: x18+x54-y18_54 <=1 
C624: x18+x55 <=1 
C625: x18+x56-y18_56 <=1 
C626: x18+x57 <=1 
C627: x18+x58 <=1 
C628: x18+x59-y18_59 <=1 
C629: x18+x61 <=1 
C630: x18+x62-y18_62 <=1 
C631: x19+x22-y19_22 <=1 
C632: x19+x27-y19_27 <=1 
C633: x19+x28 <=1 
C634: x19+x30-y19_30 <=1 
C635: x19+x31 <=1 
C636: x19+x33-y19_33 <=1 
C637: x19+x35 <=1 
C638: x19+x36 <=1 
C639: x19+x37 <=1 
C640: x19+x38-y19_38 <=1 
C641: x19+x40-y19_40 <=1 
C642: x19+x42 <=1 
C643: x19+x44 <=1 
C644: x19+x46 <=1 
C645: x19+x47-y19_47 <=1 
C646: x19+x48-y19_48 <=1 
C647: x19+x49-y19_49 <=1 
C648: x19+x51 <=1 
C649: x19+x52 <=1 
C650: x19+x53-y19_53 <=1 
C651: x19+x55-y19_55 <=1 
C652: x19+x56-y19_56 <=1 
C653: x19+x57 <=1 
C654: x19+x58-y19_58 <=1 
C655: x19+x61 <=1 
C656: x19+x62 <=1 
C657: x20+x22-y20_22 <=1 
C658: x20+x23 <=1 
C659: x20+x26 <=1 
C660: x20+x28-y20_28 <=1 
C661: x20+x29 <=1 
C662: x20+x30 <=1 
C663: x20+x31-y20_31 <=1 
C664: x20+x32 <=1 
C665: x20+x35 <=1 
C666: x20+x38-y20_38 <=1 
C667: x20+x39 <=1 
C668: x20+x40-y20_40 <=1 
C669: x20+x43 <=1 
C670: x20+x45 <=1 
C671: x20+x47 <=1 
C672: x20+x48-y20_48 <=1 
C673: x20+x50-y20_50 <=1 
C674: x20+x51-y20_51 <=1 
C675: x20+x52 <=1 
C676: x20+x53 <=1 
C677: x20+x56-y20_56 <=1 
C678: x20+x57 <=1 
C679: x20+x58-y20_58 <=1 
C680: x20+x60 <=1 
C681: x20+x61 <=1 
C682: x20+x62 <=1 
C683: x21+x22 <=1 
C684: x21+x26 <=1 
C685: x21+x27-y21_27 <=1 
C686: x21+x29 <=1 
C687: x21+x30-y21_30 <=1 
C688: x21+x31 <=1 
C689: x21+x34-y21_34 <=1 
C690: x21+x36 <=1 
C691: x21+x37 <=1 
C692: x21+x38-y21_38 <=1 
C693: x21+x39 <=1 
C694: x21+x40 <=1 
C695: x21+x41-y21_41 <=1 
C696: x21+x43-y21_43 <=1 
C697: x21+x44 <=1 
C698: x21+x45-y21_45 <=1 
C699: x21+x48 <=1 
C700: x21+x51 <=1 
C701: x21+x52-y21_52 <=1 
C702: x21+x53-y21_53 <=1 
C703: x21+x56-y21_56 <=1 
C704: x21+x57-y21_57 <=1 
C705: x21+x58-y21_58 <=1 
C706: x21+x59 <=1 
C707: x21+x60-y21_60 <=1 
C708: x21+x61-y21_61 <=1 
C709: x22+x23 <=1 
C710: x22+x24 <=1 
C711: x22+x25-y22_25 <=1 
C712: x22+x26 <=1 
C713: x22+x27 <=1 
C714: x22+x30-y22_30 <=1 
C715: x22+x32 <=1 
C716: x22+x34-y22_34 <=1 
C717: x22+x35 <=1 
C718: x22+x37 <=1 
C719: x22+x41-y22_41 <=1 
C720: x22+x42 <=1 
C721: x22+x43-y22_43 <=1 
C722: x22+x44 <=1 
C723: x22+x46-y22_46 <=1 
C724: x22+x48-y22_48 <=1 
C725: x22+x49 <=1 
C726: x22+x50 <=1 
C727: x22+x51-y22_51 <=1 
C728: x22+x52 <=1 
C729: x22+x53-y22_53 <=1 
C730: x22+x54 <=1 
C731: x22+x55 <=1 
C732: x22+x56 <=1 
C733: x22+x57 <=1 
C734: x22+x58 <=1 
C735: x22+x59-y22_59 <=1 
C736: x22+x61-y22_61 <=1 
C737: x23+x25-y23_25 <=1 
C738: x23+x28 <=1 
C739: x23+x29-y23_29 <=1 
C740: x23+x31-y23_31 <=1 
C741: x23+x32 <=1 
C742: x23+x33-y23_33 <=1 
C743: x23+x34-y23_34 <=1 
C744: x23+x35 <=1 
C745: x23+x38 <=1 
C746: x23+x40-y23_40 <=1 
C747: x23+x42-y23_42 <=1 
C748: x23+x43 <=1 
C749: x23+x46 <=1 
C750: x23+x47-y23_47 <=1 
C751: x23+x49-y23_49 <=1 
C752: x23+x51 <=1 
C753: x23+x53-y23_53 <=1 
C754: x23+x54 <=1 
C755: x23+x55-y23_55 <=1 
C756: x23+x56-y23_56 <=1 
C757: x23+x58 <=1 
C758: x23+x60 <=1 
C759: x23+x61-y23_61 <=1 
C760: x24+x25-y24_25 <=1 
C761: x24+x26-y24_26 <=1 
C762: x24+x27 <=1 
C763: x24+x30 <=1 
C764: x24+x31-y24_31 <=1 
C765: x24+x32-y24_32 <=1 
C766: x24+x36-y24_36 <=1 
C767: x24+x38 <=1 
C768: x24+x40 <=1 
C769: x24+x41-y24_41 <=1 
C770: x24+x43 <=1 
C771: x24+x46-y24_46 <=1 
C772: x24+x49-y24_49 <=1 
C773: x24+x50-y24_50 <=1 
C774: x24+x51-y24_51 <=1 
C775: x24+x52-y24_52 <=1 
C776: x24+x53-y24_53 <=1 
C777: x24+x54 <=1 
C778: x24+x56-y24_56 <=1 
C779: x24+x57 <=1 
C780: x24+x58-y24_58 <=1 
C781: x24+x59 <=1 
C782: x24+x61 <=1 
C783: x25+x26-y25_26 <=1 
C784: x25+x28-y25_28 <=1 
C785: x25+x29-y25_29 <=1 
C786: x25+x30 <=1 
C787: x25+x31 <=1 
C788: x25+x33-y25_33 <=1 
C789: x25+x36 <=1 
C790: x25+x37 <=1 
C791: x25+x38-y25_38 <=1 
C792: x25+x39 <=1 
C793: x25+x41 <=1 
C794: x25+x44 <=1 
C795: x25+x45-y25_45 <=1 
C796: x25+x46-y25_46 <=1 
C797: x25+x47 <=1 
C798: x25+x48 <=1 
C799: x25+x49 <=1 
C800: x25+x50-y25_50 <=1 
C801: x25+x52 <=1 
C802: x25+x53-y25_53 <=1 
C803: x25+x57-y25_57 <=1 
C804: x25+x58 <=1 
C805: x25+x60 <=1 
C806: x25+x61 <=1 
C807: x26+x27-y26_27 <=1 
C808: x26+x29-y26_29 <=1 
C809: x26+x32-y26_32 <=1 
C810: x26+x34 <=1 
C811: x26+x36 <=1 
C812: x26+x37 <=1 
C813: x26+x38 <=1 
C814: x26+x43-y26_43 <=1 
C815: x26+x45 <=1 
C816: x26+x47 <=1 
C817: x26+x48 <=1 
C818: x26+x49 <=1 
C819: x26+x50 <=1 
C820: x26+x51 <=1 
C821: x26+x52 <=1 
C822: x26+x54 <=1 
C823: x26+x59-y26_59 <=1 
C824: x26+x60 <=1 
C825: x26+x61 <=1 
C826: x27+x28-y27_28 <=1 
C827: x27+x30 <=1 
C828: x27+x31 <=1 
C829: x27+x32 <=1 
C830: x27+x33 <=1 
C831: x27+x35-y27_35 <=1 
C832: x27+x36-y27_36 <=1 
C833: x27+x38-y27_38 <=1 
C834: x27+x41-y27_41 <=1 
C835: x27+x43 <=1 
C836: x27+x46 <=1 
C837: x27+x48-y27_48 <=1 
C838: x27+x53 <=1 
C839: x27+x54-y27_54 <=1 
C840: x27+x60 <=1 
C841: x27+x61 <=1 
C842: x27+x62 <=1 
C843: x28+x29-y28_29 <=1 
C844: x28+x30-y28_30 <=1 
C845: x28+x32-y28_32 <=1 
C846: x28+x33-y28_33 <=1 
C847: x28+x35 <=1 
C848: x28+x36-y28_36 <=1 
C849: x28+x37 <=1 
C850: x28+x40 <=1 
C851: x28+x43-y28_43 <=1 
C852: x28+x44 <=1 
C853: x28+x46 <=1 
C854: x28+x49 <=1 
C855: x28+x51 <=1 
C856: x28+x52-y28_52 <=1 
C857: x28+x54-y28_54 <=1 
C858: x28+x55-y28_55 <=1 
C859: x28+x57 <=1 
C860: x28+x59-y28_59 <=1 
C861: x28+x60-y28_60 <=1 
C862: x28+x61-y28_61 <=1 
C863: x29+x30 <=1 
C864: x29+x31-y29_31 <=1 
C865: x29+x32-y29_32 <=1 
C866: x29+x34 <=1 
C867: x29+x36 <=1 
C868: x29+x38-y29_38 <=1 
C869: x29+x40 <=1 
C870: x29+x42-y29_42 <=1 
C871: x29+x43-y29_43 <=1 
C872: x29+x44-y29_44 <=1 
C873: x29+x46-y29_46 <=1 
C874: x29+x47-y29_47 <=1 
C875: x29+x48 <=1 
C876: x29+x49-y29_49 <=1 
C877: x29+x51 <=1 
C878: x29+x52 <=1 
C879: x29+x53-y29_53 <=1 
C880: x29+x54-y29_54 <=1 
C881: x29+x55-y29_55 <=1 
C882: x29+x56-y29_56 <=1 
C883: x29+x59-y29_59 <=1 
C884: x29+x60 <=1 
C885: x30+x31 <=1 
C886: x30+x34 <=1 
C887: x30+x36-y30_36 <=1 
C888: x30+x38-y30_38 <=1 
C889: x30+x41-y30_41 <=1 
C890: x30+x44 <=1 
C891: x30+x45-y30_45 <=1 
C892: x30+x46 <=1 
C893: x30+x47-y30_47 <=1 
C894: x30+x49-y30_49 <=1 
C895: x30+x50-y30_50 <=1 
C896: x30+x51 <=1 
C897: x30+x53-y30_53 <=1 
C898: x30+x54 <=1 
C899: x30+x56 <=1 
C900: x30+x57-y30_57 <=1 
C901: x30+x58-y30_58 <=1 
C902: x30+x59 <=1 
C903: x30+x61 <=1 
C904: x30+x62 <=1 
C905: x31+x33 <=1 
C906: x31+x34-y31_34 <=1 
C907: x31+x36 <=1 
C908: x31+x38-y31_38 <=1 
C909: x31+x39 <=1 
C910: x31+x41-y31_41 <=1 
C911: x31+x43-y31_43 <=1 
C912: x31+x46-y31_46 <=1 
C913: x31+x48 <=1 
C914: x31+x50 <=1 
C915: x31+x52 <=1 
C916: x31+x53-y31_53 <=1 
C917: x31+x54-y31_54 <=1 
C918: x31+x56 <=1 
C919: x31+x59 <=1 
C920: x31+x61 <=1 
C921: x32+x33-y32_33 <=1 
C922: x32+x34 <=1 
C923: x32+x35-y32_35 <=1 
C924: x32+x37 <=1 
C925: x32+x40 <=1 
C926: x32+x42-y32_42 <=1 
C927: x32+x44 <=1 
C928: x32+x45-y32_45 <=1 
C929: x32+x48-y32_48 <=1 
C930: x32+x49-y32_49 <=1 
C931: x32+x50 <=1 
C932: x32+x52-y32_52 <=1 
C933: x32+x53 <=1 
C934: x32+x54-y32_54 <=1 
C935: x32+x56-y32_56 <=1 
C936: x32+x57-y32_57 <=1 
C937: x32+x58 <=1 
C938: x32+x61-y32_61 <=1 
C939: x33+x34-y33_34 <=1 
C940: x33+x35 <=1 
C941: x33+x37-y33_37 <=1 
C942: x33+x38 <=1 
C943: x33+x40 <=1 
C944: x33+x41-y33_41 <=1 
C945: x33+x45-y33_45 <=1 
C946: x33+x46 <=1 
C947: x33+x47 <=1 
C948: x33+x49-y33_49 <=1 
C949: x33+x51 <=1 
C950: x33+x52-y33_52 <=1 
C951: x33+x54-y33_54 <=1 
C952: x33+x55-y33_55 <=1 
C953: x33+x56-y33_56 <=1 
C954: x33+x57 <=1 
C955: x33+x58-y33_58 <=1 
C956: x33+x60-y33_60 <=1 
C957: x33+x61-y33_61 <=1 
C958: x33+x62-y33_62 <=1 
C959: x34+x37 <=1 
C960: x34+x39-y34_39 <=1 
C961: x34+x41-y34_41 <=1 
C962: x34+x43-y34_43 <=1 
C963: x34+x46-y34_46 <=1 
C964: x34+x52 <=1 
C965: x34+x53-y34_53 <=1 
C966: x34+x54 <=1 
C967: x34+x56-y34_56 <=1 
C968: x34+x57-y34_57 <=1 
C969: x34+x58-y34_58 <=1 
C970: x34+x59 <=1 
C971: x35+x36-y35_36 <=1 
C972: x35+x37 <=1 
C973: x35+x38-y35_38 <=1 
C974: x35+x40-y35_40 <=1 
C975: x35+x46 <=1 
C976: x35+x47-y35_47 <=1 
C977: x35+x49-y35_49 <=1 
C978: x35+x50-y35_50 <=1 
C979: x35+x51 <=1 
C980: x35+x52-y35_52 <=1 
C981: x35+x54-y35_54 <=1 
C982: x35+x55 <=1 
C983: x35+x57-y35_57 <=1 
C984: x35+x59 <=1 
C985: x35+x60-y35_60 <=1 
C986: x35+x61-y35_61 <=1 
C987: x35+x62 <=1 
C988: x36+x39-y36_39 <=1 
C989: x36+x40-y36_40 <=1 
C990: x36+x41 <=1 
C991: x36+x43 <=1 
C992: x36+x45 <=1 
C993: x36+x46 <=1 
C994: x36+x48 <=1 
C995: x36+x51 <=1 
C996: x36+x52-y36_52 <=1 
C997: x36+x54 <=1 
C998: x36+x55 <=1 
C999: x36+x56 <=1 
C1000: x36+x57 <=1 
C1001: x36+x60-y36_60 <=1 
C1002: x37+x38-y37_38 <=1 
C1003: x37+x40 <=1 
C1004: x37+x41-y37_41 <=1 
C1005: x37+x43 <=1 
C1006: x37+x45-y37_45 <=1 
C1007: x37+x46 <=1 
C1008: x37+x50 <=1 
C1009: x37+x52-y37_52 <=1 
C1010: x37+x54 <=1 
C1011: x37+x56 <=1 
C1012: x37+x57-y37_57 <=1 
C1013: x37+x59 <=1 
C1014: x37+x60-y37_60 <=1 
C1015: x37+x61-y37_61 <=1 
C1016: x37+x62-y37_62 <=1 
C1017: x38+x43 <=1 
C1018: x38+x44 <=1 
C1019: x38+x45-y38_45 <=1 
C1020: x38+x47-y38_47 <=1 
C1021: x38+x49 <=1 
C1022: x38+x50 <=1 
C1023: x38+x51-y38_51 <=1 
C1024: x38+x52 <=1 
C1025: x38+x53 <=1 
C1026: x38+x55 <=1 
C1027: x38+x56-y38_56 <=1 
C1028: x38+x57-y38_57 <=1 
C1029: x38+x60-y38_60 <=1 
C1030: x38+x61-y38_61 <=1 
C1031: x38+x62 <=1 
C1032: x39+x42 <=1 
C1033: x39+x43-y39_43 <=1 
C1034: x39+x44-y39_44 <=1 
C1035: x39+x46 <=1 
C1036: x39+x47-y39_47 <=1 
C1037: x39+x48-y39_48 <=1 
C1038: x39+x49-y39_49 <=1 
C1039: x39+x50-y39_50 <=1 
C1040: x39+x52 <=1 
C1041: x39+x53 <=1 
C1042: x39+x56 <=1 
C1043: x39+x57-y39_57 <=1 
C1044: x39+x58 <=1 
C1045: x39+x60-y39_60 <=1 
C1046: x39+x61-y39_61 <=1 
C1047: x40+x41 <=1 
C1048: x40+x42-y40_42 <=1 
C1049: x40+x43 <=1 
C1050: x40+x44 <=1 
C1051: x40+x45-y40_45 <=1 
C1052: x40+x46-y40_46 <=1 
C1053: x40+x48 <=1 
C1054: x40+x50-y40_50 <=1 
C1055: x40+x52 <=1 
C1056: x40+x54 <=1 
C1057: x40+x55 <=1 
C1058: x40+x56 <=1 
C1059: x40+x57 <=1 
C1060: x40+x58-y40_58 <=1 
C1061: x40+x59 <=1 
C1062: x40+x60-y40_60 <=1 
C1063: x40+x62-y40_62 <=1 
C1064: x41+x42 <=1 
C1065: x41+x43-y41_43 <=1 
C1066: x41+x45 <=1 
C1067: x41+x47-y41_47 <=1 
C1068: x41+x48 <=1 
C1069: x41+x50-y41_50 <=1 
C1070: x41+x53 <=1 
C1071: x41+x54-y41_54 <=1 
C1072: x41+x55-y41_55 <=1 
C1073: x41+x57 <=1 
C1074: x41+x58 <=1 
C1075: x41+x59 <=1 
C1076: x41+x60 <=1 
C1077: x41+x61 <=1 
C1078: x41+x62-y41_62 <=1 
C1079: x42+x44 <=1 
C1080: x42+x46 <=1 
C1081: x42+x47-y42_47 <=1 
C1082: x42+x48 <=1 
C1083: x42+x50-y42_50 <=1 
C1084: x42+x51 <=1 
C1085: x42+x54 <=1 
C1086: x42+x57 <=1 
C1087: x42+x58-y42_58 <=1 
C1088: x42+x59 <=1 
C1089: x42+x60-y42_60 <=1 
C1090: x42+x61-y42_61 <=1 
C1091: x42+x62 <=1 
C1092: x43+x48-y43_48 <=1 
C1093: x43+x51-y43_51 <=1 
C1094: x43+x52 <=1 
C1095: x43+x55 <=1 
C1096: x43+x56 <=1 
C1097: x43+x57 <=1 
C1098: x43+x58 <=1 
C1099: x43+x60 <=1 
C1100: x43+x62-y43_62 <=1 
C1101: x44+x47 <=1 
C1102: x44+x48-y44_48 <=1 
C1103: x44+x49 <=1 
C1104: x44+x51-y44_51 <=1 
C1105: x44+x52 <=1 
C1106: x44+x53 <=1 
C1107: x44+x54 <=1 
C1108: x44+x55 <=1 
C1109: x44+x56-y44_56 <=1 
C1110: x44+x58 <=1 
C1111: x44+x60-y44_60 <=1 
C1112: x45+x47 <=1 
C1113: x45+x49-y45_49 <=1 
C1114: x45+x51 <=1 
C1115: x45+x52 <=1 
C1116: x45+x53-y45_53 <=1 
C1117: x45+x56-y45_56 <=1 
C1118: x45+x57-y45_57 <=1 
C1119: x45+x60 <=1 
C1120: x45+x61-y45_61 <=1 
C1121: x45+x62 <=1 
C1122: x46+x48-y46_48 <=1 
C1123: x46+x49 <=1 
C1124: x46+x51 <=1 
C1125: x46+x55 <=1 
C1126: x46+x58 <=1 
C1127: x46+x59 <=1 
C1128: x46+x60 <=1 
C1129: x46+x61 <=1 
C1130: x47+x48-y47_48 <=1 
C1131: x47+x49-y47_49 <=1 
C1132: x47+x50 <=1 
C1133: x47+x51 <=1 
C1134: x47+x54-y47_54 <=1 
C1135: x47+x55-y47_55 <=1 
C1136: x47+x56-y47_56 <=1 
C1137: x47+x58-y47_58 <=1 
C1138: x47+x59 <=1 
C1139: x47+x60 <=1 
C1140: x47+x62 <=1 
C1141: x48+x50 <=1 
C1142: x48+x53 <=1 
C1143: x48+x57-y48_57 <=1 
C1144: x48+x58 <=1 
C1145: x48+x59-y48_59 <=1 
C1146: x48+x62-y48_62 <=1 
C1147: x49+x50-y49_50 <=1 
C1148: x49+x51-y49_51 <=1 
C1149: x49+x52-y49_52 <=1 
C1150: x49+x53 <=1 
C1151: x49+x54-y49_54 <=1 
C1152: x49+x55-y49_55 <=1 
C1153: x49+x56 <=1 
C1154: x49+x59 <=1 
C1155: x49+x60 <=1 
C1156: x50+x52 <=1 
C1157: x50+x53 <=1 
C1158: x50+x54 <=1 
C1159: x50+x55 <=1 
C1160: x50+x56 <=1 
C1161: x50+x57 <=1 
C1162: x50+x58-y50_58 <=1 
C1163: x50+x60 <=1 
C1164: x51+x54 <=1 
C1165: x51+x55 <=1 
C1166: x51+x58 <=1 
C1167: x51+x59 <=1 
C1168: x51+x60-y51_60 <=1 
C1169: x51+x61 <=1 
C1170: x51+x62-y51_62 <=1 
C1171: x52+x53 <=1 
C1172: x52+x55-y52_55 <=1 
C1173: x52+x56 <=1 
C1174: x52+x61-y52_61 <=1 
C1175: x52+x62-y52_62 <=1 
C1176: x53+x54-y53_54 <=1 
C1177: x53+x55-y53_55 <=1 
C1178: x53+x56-y53_56 <=1 
C1179: x53+x57-y53_57 <=1 
C1180: x53+x58-y53_58 <=1 
C1181: x53+x59 <=1 
C1182: x53+x60-y53_60 <=1 
C1183: x53+x62-y53_62 <=1 
C1184: x54+x55 <=1 
C1185: x54+x56 <=1 
C1186: x54+x57-y54_57 <=1 
C1187: x54+x59 <=1 
C1188: x55+x57 <=1 
C1189: x55+x59 <=1 
C1190: x55+x62 <=1 
C1191: x56+x59-y56_59 <=1 
C1192: x56+x62-y56_62 <=1 
C1193: x57+x58 <=1 
C1194: x57+x61 <=1 
C1195: x57+x62 <=1 
C1196: x58+x62 <=1 
C1197: x59+x60 <=1 
C1198: x59+x61 <=1 
C1199: x59+x62-y59_62 <=1 
C1200: x60+x61-y60_61 <=1 
C1201: x61+x62-y61_62 <=1 

binary
x0
x1
x2
x3
x4
x5
x6
x7
x8
x9
x10
x11
x12
x13
x14
x15
x16
x17
x18
x19
x20
x21
x22
x23
x24
x25
x26
x27
x28
x29
x30
x31
x32
x33
x34
x35
x36
x37
x38
x39
x40
x41
x42
x43
x44
x45
x46
x47
x48
x49
x50
x51
x52
x53
x54
x55
x56
x57
x58
x59
x60
x61
x62
