problem_generation/data/GISP/train/er_n=63_m=1201_p=0.60_SET2_setparam=100.00_alpha=0.50_717.sol
objective value:                                 1177
x1                                                  1 	(obj:100)
x6                                                  1 	(obj:100)
x7                                                  1 	(obj:100)
x11                                                 1 	(obj:100)
x20                                                 1 	(obj:100)
x27                                                 1 	(obj:100)
x28                                                 1 	(obj:100)
x34                                                 1 	(obj:100)
x36                                                 1 	(obj:100)
x38                                                 1 	(obj:100)
x42                                                 1 	(obj:100)
x58                                                 1 	(obj:100)
y6_42                                               1 	(obj:-1)
y42_58                                              1 	(obj:-1)
y1_38                                               1 	(obj:-1)
y20_38                                              1 	(obj:-1)
y34_58                                              1 	(obj:-1)
y1_42                                               1 	(obj:-1)
y7_58                                               1 	(obj:-1)
y27_36                                              1 	(obj:-1)
y1_28                                               1 	(obj:-1)
y20_28                                              1 	(obj:-1)
y11_36                                              1 	(obj:-1)
y7_20                                               1 	(obj:-1)
y7_42                                               1 	(obj:-1)
y7_28                                               1 	(obj:-1)
y28_36                                              1 	(obj:-1)
y1_27                                               1 	(obj:-1)
y20_58                                              1 	(obj:-1)
y27_38                                              1 	(obj:-1)
y27_28                                              1 	(obj:-1)
y11_20                                              1 	(obj:-1)
y1_11                                               1 	(obj:-1)
y11_42                                              1 	(obj:-1)
y1_6                                                1 	(obj:-1)
